
--- Job EvilSudoku.gms Start 05/05/22 04:22:24 38.2.1 96226ea8 WEX-WEI x86 64bit/MS Windows
--- Applying:
    C:\GAMS\38\gmsprmNT.txt
--- GAMS Parameters defined
    Input C:\projects\OptimizationModels\Sudoku\EvilSudoku.gms
    PageWidth 130
    PageSize 0
    PageContr 3
    Action CE
    ScrDir C:\projects\OptimizationModels\Sudoku\225a\
    SysDir C:\GAMS\38\
    WorkDir C:\projects\OptimizationModels\Sudoku\
    LogOption 3
    DFormat 0
    TFormat 0
    ErrorLog 99
    IDE 1
Licensee: Eval License                                   G211206|0002CO-GEN
          Amsterdam Optimization Modeling Group,                     DCE378
          C:\GAMS\38\gamslice.txt
          License Admin: Erwin Kalvelagen, info@amsterdamoptimization.com  
          Evaluation license: Not for commercial or production use
Processor information: 1 socket(s), 8 core(s), and 16 thread(s) available
GAMS 38.2.1   Copyright (C) 1987-2022 GAMS Development. All rights reserved
--- Starting compilation
--- EvilSudoku.gms(75) 3 Mb
--- Starting execution: elapsed 0:00:00.064
--- EvilSudoku.gms(48) 4 Mb
--- Generating MIP model sudoku
--- EvilSudoku.gms(66) 4 Mb
---   325 rows  730 columns  2,917 non-zeroes
---   729 discrete-columns
--- Executing CPLEX (Solvelink=2): elapsed 0:00:00.068

IBM ILOG CPLEX   38.2.1 96226ea8 Feb 19, 2022          WEI x86 64bit/MS Window

--- GAMS/Cplex Link licensed for continuous and discrete problems.
--- GMO setup time: 0.00s
--- Space for names approximately 0.02 Mb
--- Use option 'names no' to turn use of names off
--- GMO memory 0.62 Mb (peak 0.63 Mb)
--- Dictionary memory 0.00 Mb
--- Cplex 20.1.0.1 link memory 0.02 Mb (peak 0.09 Mb)
--- Starting Cplex

Version identifier: 20.1.0.1 | 2021-04-07 | 3a818710c
CPXPARAM_Advance                                 0
CPXPARAM_Threads                                 1
CPXPARAM_MIP_Display                             4
CPXPARAM_MIP_Pool_Capacity                       0
CPXPARAM_MIP_Tolerances_AbsMIPGap                0
Generic callback                                 0x50
Tried aggregator 2 times.
MIP Presolve eliminated 168 rows and 580 columns.
Aggregator did 28 substitutions.
Reduced MIP has 128 rows, 122 columns, and 501 nonzeros.
Reduced MIP has 122 binaries, 0 generals, 0 SOSs, and 0 indicators.
Presolve time = 0.09 sec. (0.93 ticks)
Found incumbent of value 0.000000 after 0.09 sec. (1.66 ticks)

Root node processing (before b&c):
  Real time             =    0.09 sec. (1.67 ticks)
Sequential b&c:
  Real time             =    0.00 sec. (0.00 ticks)
                          ------------
Total (root+branch&cut) =    0.09 sec. (1.67 ticks)

--- MIP status (101): integer optimal solution.
--- Cplex Time: 0.09sec (det. 1.67 ticks)

--- Fixing integer variables and solving final LP...

Version identifier: 20.1.0.1 | 2021-04-07 | 3a818710c
CPXPARAM_Advance                                 2
CPXPARAM_Threads                                 1
CPXPARAM_MIP_Display                             4
CPXPARAM_MIP_Pool_Capacity                       0
CPXPARAM_MIP_Tolerances_AbsMIPGap                0
Tried aggregator 1 time.
LP Presolve eliminated 324 rows and 730 columns.
All rows and columns eliminated.
Presolve time = 0.02 sec. (0.29 ticks)

--- Fixed MIP status (1): optimal.
--- Cplex Time: 0.02sec (det. 0.43 ticks)


Proven optimal solution
MIP Solution:            0.000000    (0 iterations, 0 nodes)
Final Solve:             0.000000    (0 iterations)

Best possible:           0.000000
Absolute gap:            0.000000
Relative gap:            0.000000

--- Reading solution for model sudoku
--- Executing after solve: elapsed 0:00:00.212
--- EvilSudoku.gms(74) 4 Mb
*** Status: Normal completion
--- Job EvilSudoku.gms Stop 05/05/22 04:22:24 elapsed 0:00:00.213
